NAME : XML50_2173_16
COMMENT : Generated as the XML100 dataset from the CVRPLIB
TYPE : CVRP
DIMENSION : 51
EDGE_WEIGHT_TYPE : EUC_2D
CAPACITY : 142
NODE_COORD_SECTION
1    500  500 
2    775  11  
3    516  791 
4    438  405 
5    252  763 
6    973  124 
7    149  424 
8    38   944 
9    973  380 
10   14   327 
11   66   664 
12   300  242 
13   998  400 
14   576  274 
15   496  98  
16   172  959 
17   702  868 
18   132  447 
19   247  74  
20   966  26  
21   937  829 
22   812  703 
23   540  305 
24   495  871 
25   988  828 
26   962  208 
27   351  204 
28   297  953 
29   792  288 
30   899  338 
31   350  547 
32   362  338 
33   313  357 
34   303  386 
35   584  314 
36   286  983 
37   229  278 
38   63   23  
39   55   250 
40   172  497 
41   259  959 
42   5    545 
43   331  496 
44   504  543 
45   723  157 
46   515  88  
47   549  334 
48   838  327 
49   964  198 
50   170  118 
51   968  952 
DEMAND_SECTION
1    0   
2    9   
3    7   
4    6   
5    4   
6    5   
7    6   
8    7   
9    1   
10   9   
11   10  
12   91  
13   5   
14   9   
15   96  
16   9   
17   5   
18   3   
19   7   
20   3   
21   8   
22   1   
23   6   
24   10  
25   2   
26   1   
27   4   
28   4   
29   2   
30   10  
31   10  
32   84  
33   52  
34   8   
35   3   
36   5   
37   10  
38   7   
39   1   
40   7   
41   9   
42   6   
43   5   
44   1   
45   6   
46   7   
47   5   
48   7   
49   8   
50   10  
51   58  
DEPOT_SECTION
1
-1
EOF
